(set-logic QF_LRA)
(declare-fun t@1 () Real)
(declare-fun fluent_robot_at_r0_p0@0 () Bool)
(declare-fun fluent_robot_at_r1_p0@0 () Bool)
(declare-fun parameter_make_treatment_t@1 () Real)
(declare-fun fluent_robot_at_r0_p1@0 () Bool)
(declare-fun fluent_robot_free_r0@0 () Bool)
(declare-fun fluent_robot_free_r1@0 () Bool)
(declare-fun parameter_make_treatment_pallet@1 () Real)
(declare-fun fluent_robot_at_r1_p1@0 () Bool)
(declare-fun parameter_make_treatment_r@1 () Real)
(declare-fun fluent_pallet_at_plt0_p0@0 () Bool)
(declare-fun fluent_pallet_at_plt0_p1@0 () Bool)
(declare-fun fluent_battery_level_r0@0 () Real)
(declare-fun parameter_make_treatment_pos@1 () Real)
(declare-fun fluent_battery_level_r1@0 () Real)
(declare-fun fluent_position_free_p0@0 () Bool)
(declare-fun fluent_position_free_p1@0 () Bool)
(declare-fun fluent_robot_has_r0_plt0@0 () Bool)
(declare-fun fluent_robot_has_r1_plt0@0 () Bool)
(declare-fun fluent_ready_plt0_p0_t0@0 () Bool)
(declare-fun fluent_ready_plt0_p1_t0@0 () Bool)
(declare-fun fluent_ready_plt0_p0_t1@0 () Bool)
(declare-fun fluent_ready_plt0_p1_t1@0 () Bool)
(declare-fun fluent_treated_plt0_t0@0 () Bool)
(declare-fun fluent_treated_plt0_t1@0 () Bool)
(declare-fun act_move@1 () Bool)
(declare-fun parameter_move_topos@1 () Real)
(declare-fun parameter_move_frompos@1 () Real)
(declare-fun parameter_move_r@1 () Real)
(declare-fun act_make_treatment@1 () Bool)
(declare-fun fluent_robot_at_r0_p0@1 () Bool)
(declare-fun fluent_robot_at_r1_p0@1 () Bool)
(declare-fun fluent_robot_at_r0_p1@1 () Bool)
(declare-fun fluent_robot_at_r1_p1@1 () Bool)
(declare-fun fluent_battery_level_r0@1 () Real)
(declare-fun fluent_battery_level_r1@1 () Real)
(declare-fun act_load@1 () Bool)
(declare-fun parameter_load_t@1 () Real)
(declare-fun parameter_load_pos@1 () Real)
(declare-fun parameter_load_pallet@1 () Real)
(declare-fun parameter_load_r@1 () Real)
(declare-fun fluent_robot_free_r0@1 () Bool)
(declare-fun fluent_robot_free_r1@1 () Bool)
(declare-fun fluent_ready_plt0_p0_t0@1 () Bool)
(declare-fun fluent_ready_plt0_p1_t0@1 () Bool)
(declare-fun fluent_ready_plt0_p0_t1@1 () Bool)
(declare-fun fluent_ready_plt0_p1_t1@1 () Bool)
(declare-fun fluent_pallet_at_plt0_p0@1 () Bool)
(declare-fun fluent_pallet_at_plt0_p1@1 () Bool)
(declare-fun fluent_robot_has_r0_plt0@1 () Bool)
(declare-fun fluent_robot_has_r1_plt0@1 () Bool)
(declare-fun fluent_treated_plt0_t0@1 () Bool)
(declare-fun fluent_treated_plt0_t1@1 () Bool)
(declare-fun fluent_position_free_p0@1 () Bool)
(declare-fun fluent_position_free_p1@1 () Bool)
(declare-fun act_load_at_depot@1 () Bool)
(declare-fun parameter_load_at_depot_pos@1 () Real)
(declare-fun parameter_load_at_depot_r@1 () Real)
(declare-fun parameter_load_at_depot_pallet@1 () Real)
(declare-fun act_unload_at_depot@1 () Bool)
(declare-fun parameter_unload_at_depot_pos@1 () Real)
(declare-fun parameter_unload_at_depot_r@1 () Real)
(declare-fun parameter_unload_at_depot_pallet@1 () Real)
(declare-fun dur_make_treatment@1 () Real)
(assert (let ((.def_0 (= parameter_load_pos@1 3.0))) (let ((.def_1 (= parameter_load_pos@1 2.0))) (let ((.def_2 (or .def_1 .def_0))) (let ((.def_3 (= parameter_load_t@1 6.0))) (let ((.def_4 (= parameter_load_t@1 5.0))) (let ((.def_5 (or .def_4 .def_3))) (let ((.def_6 (<= fluent_battery_level_r1@1 100.0))) (let ((.def_7 (<= 0.0 fluent_battery_level_r1@1))) (let ((.def_8 (= parameter_unload_at_depot_pallet@1 4.0))) (let ((.def_9 (<= fluent_battery_level_r0@1 100.0))) (let ((.def_10 (<= 0.0 fluent_battery_level_r0@1))) (let ((.def_11 (= parameter_unload_at_depot_r@1 1.0))) (let ((.def_12 (= parameter_unload_at_depot_r@1 0.0))) (let ((.def_13 (or .def_12 .def_11))) (let ((.def_14 (= parameter_unload_at_depot_pos@1 3.0))) (let ((.def_15 (= parameter_unload_at_depot_pos@1 2.0))) (let ((.def_16 (or .def_15 .def_14))) (let ((.def_17 (= parameter_load_at_depot_pallet@1 4.0))) (let ((.def_18 (= parameter_move_r@1 1.0))) (let ((.def_19 (= parameter_move_r@1 0.0))) (let ((.def_20 (or .def_19 .def_18))) (let ((.def_21 (= parameter_move_frompos@1 3.0))) (let ((.def_22 (= parameter_move_frompos@1 2.0))) (let ((.def_23 (or .def_22 .def_21))) (let ((.def_24 (= parameter_load_at_depot_r@1 1.0))) (let ((.def_25 (= parameter_load_at_depot_r@1 0.0))) (let ((.def_26 (or .def_25 .def_24))) (let ((.def_27 (= parameter_move_topos@1 3.0))) (let ((.def_28 (= parameter_move_topos@1 2.0))) (let ((.def_29 (or .def_28 .def_27))) (let ((.def_30 (= parameter_load_at_depot_pos@1 3.0))) (let ((.def_31 (= parameter_load_at_depot_pos@1 2.0))) (let ((.def_32 (or .def_31 .def_30))) (let ((.def_33 (= parameter_make_treatment_pos@1 3.0))) (let ((.def_34 (= parameter_make_treatment_pos@1 2.0))) (let ((.def_35 (or .def_34 .def_33))) (let ((.def_36 (= parameter_make_treatment_r@1 1.0))) (let ((.def_37 (= parameter_make_treatment_r@1 0.0))) (let ((.def_38 (or .def_37 .def_36))) (let ((.def_39 (= parameter_make_treatment_pallet@1 4.0))) (let ((.def_40 (= parameter_make_treatment_t@1 6.0))) (let ((.def_41 (= parameter_make_treatment_t@1 5.0))) (let ((.def_42 (or .def_41 .def_40))) (let ((.def_43 (= parameter_load_r@1 1.0))) (let ((.def_44 (= parameter_load_r@1 0.0))) (let ((.def_45 (or .def_44 .def_43))) (let ((.def_46 (= parameter_load_pallet@1 4.0))) (let ((.def_47 (and act_move@1 true .def_18))) (let ((.def_48 (= fluent_battery_level_r1@0 fluent_battery_level_r1@1))) (let ((.def_49 (not .def_48))) (let ((.def_50 (=> .def_49 .def_47))) (let ((.def_51 (and act_move@1 true .def_19))) (let ((.def_52 (= fluent_battery_level_r0@0 fluent_battery_level_r0@1))) (let ((.def_53 (not .def_52))) (let ((.def_54 (=> .def_53 .def_51))) (let ((.def_55 (and act_make_treatment@1 true .def_39 .def_33))) (let ((.def_56 (and act_unload_at_depot@1 true .def_8 .def_14))) (let ((.def_57 (and .def_56 .def_55))) (let ((.def_58 (not .def_57))) (let ((.def_59 (and act_load_at_depot@1 true .def_17 .def_30))) (let ((.def_60 (and .def_59 .def_55))) (let ((.def_61 (not .def_60))) (let ((.def_62 (and .def_59 .def_56))) (let ((.def_63 (not .def_62))) (let ((.def_64 (and act_load@1 true .def_46 .def_0))) (let ((.def_65 (and .def_64 .def_55))) (let ((.def_66 (not .def_65))) (let ((.def_67 (and .def_64 .def_56))) (let ((.def_68 (not .def_67))) (let ((.def_69 (and .def_64 .def_59))) (let ((.def_70 (not .def_69))) (let ((.def_71 (or .def_64 .def_59 .def_56 .def_55))) (let ((.def_72 (= fluent_pallet_at_plt0_p1@0 fluent_pallet_at_plt0_p1@1))) (let ((.def_73 (not .def_72))) (let ((.def_74 (=> .def_73 .def_71))) (let ((.def_75 (and act_make_treatment@1 true .def_39 .def_34))) (let ((.def_76 (and act_unload_at_depot@1 true .def_8 .def_15))) (let ((.def_77 (and .def_76 .def_75))) (let ((.def_78 (not .def_77))) (let ((.def_79 (and act_load_at_depot@1 true .def_17 .def_31))) (let ((.def_80 (and .def_79 .def_75))) (let ((.def_81 (not .def_80))) (let ((.def_82 (and .def_79 .def_76))) (let ((.def_83 (not .def_82))) (let ((.def_84 (and act_load@1 true .def_46 .def_1))) (let ((.def_85 (and .def_84 .def_75))) (let ((.def_86 (not .def_85))) (let ((.def_87 (and .def_84 .def_76))) (let ((.def_88 (not .def_87))) (let ((.def_89 (and .def_84 .def_79))) (let ((.def_90 (not .def_89))) (let ((.def_91 (or .def_84 .def_79 .def_76 .def_75))) (let ((.def_92 (= fluent_pallet_at_plt0_p0@0 fluent_pallet_at_plt0_p0@1))) (let ((.def_93 (not .def_92))) (let ((.def_94 (=> .def_93 .def_91))) (let ((.def_95 (and act_load@1 true .def_46 .def_3))) (let ((.def_96 (= fluent_treated_plt0_t1@0 fluent_treated_plt0_t1@1))) (let ((.def_97 (not .def_96))) (let ((.def_98 (=> .def_97 .def_95))) (let ((.def_99 (and act_load@1 true .def_46 .def_4))) (let ((.def_100 (= fluent_treated_plt0_t0@0 fluent_treated_plt0_t0@1))) (let ((.def_101 (not .def_100))) (let ((.def_102 (=> .def_101 .def_99))) (let ((.def_103 (and act_make_treatment@1 true .def_33))) (let ((.def_104 (and act_load@1 true .def_0))) (let ((.def_105 (and .def_104 .def_103))) (let ((.def_106 (not .def_105))) (let ((.def_107 (or .def_104 .def_103))) (let ((.def_108 (= fluent_position_free_p1@0 fluent_position_free_p1@1))) (let ((.def_109 (not .def_108))) (let ((.def_110 (=> .def_109 .def_107))) (let ((.def_111 (and act_make_treatment@1 true .def_34))) (let ((.def_112 (and act_load@1 true .def_1))) (let ((.def_113 (and .def_112 .def_111))) (let ((.def_114 (not .def_113))) (let ((.def_115 (or .def_112 .def_111))) (let ((.def_116 (= fluent_position_free_p0@0 fluent_position_free_p0@1))) (let ((.def_117 (not .def_116))) (let ((.def_118 (=> .def_117 .def_115))) (let ((.def_119 (+ t@1 10.0))) (let ((.def_120 (= t@1 .def_119))) (let ((.def_121 (and act_make_treatment@1 true .def_120 .def_39 .def_33 .def_40))) (let ((.def_122 (and act_load@1 true .def_46 .def_0 .def_3))) (let ((.def_123 (and .def_122 .def_121))) (let ((.def_124 (not .def_123))) (let ((.def_125 (or .def_122 .def_121))) (let ((.def_126 (= fluent_ready_plt0_p1_t1@0 fluent_ready_plt0_p1_t1@1))) (let ((.def_127 (not .def_126))) (let ((.def_128 (=> .def_127 .def_125))) (let ((.def_129 (and act_make_treatment@1 true .def_120 .def_39 .def_34 .def_40))) (let ((.def_130 (and act_load@1 true .def_46 .def_1 .def_3))) (let ((.def_131 (and .def_130 .def_129))) (let ((.def_132 (not .def_131))) (let ((.def_133 (or .def_130 .def_129))) (let ((.def_134 (= fluent_ready_plt0_p0_t1@0 fluent_ready_plt0_p0_t1@1))) (let ((.def_135 (not .def_134))) (let ((.def_136 (=> .def_135 .def_133))) (let ((.def_137 (and act_make_treatment@1 true .def_120 .def_39 .def_33 .def_41))) (let ((.def_138 (and act_load@1 true .def_46 .def_0 .def_4))) (let ((.def_139 (and .def_138 .def_137))) (let ((.def_140 (not .def_139))) (let ((.def_141 (or .def_138 .def_137))) (let ((.def_142 (= fluent_ready_plt0_p1_t0@0 fluent_ready_plt0_p1_t0@1))) (let ((.def_143 (not .def_142))) (let ((.def_144 (=> .def_143 .def_141))) (let ((.def_145 (and act_make_treatment@1 true .def_120 .def_39 .def_34 .def_41))) (let ((.def_146 (and act_load@1 true .def_46 .def_1 .def_4))) (let ((.def_147 (and .def_146 .def_145))) (let ((.def_148 (not .def_147))) (let ((.def_149 (or .def_146 .def_145))) (let ((.def_150 (= fluent_ready_plt0_p0_t0@0 fluent_ready_plt0_p0_t0@1))) (let ((.def_151 (not .def_150))) (let ((.def_152 (=> .def_151 .def_149))) (let ((.def_153 (and act_make_treatment@1 true .def_36 .def_39))) (let ((.def_154 (and act_unload_at_depot@1 true .def_11 .def_8))) (let ((.def_155 (and .def_154 .def_153))) (let ((.def_156 (not .def_155))) (let ((.def_157 (and act_load_at_depot@1 true .def_24 .def_17))) (let ((.def_158 (and .def_157 .def_153))) (let ((.def_159 (not .def_158))) (let ((.def_160 (and .def_157 .def_154))) (let ((.def_161 (not .def_160))) (let ((.def_162 (and act_load@1 true .def_43 .def_46))) (let ((.def_163 (and .def_162 .def_153))) (let ((.def_164 (not .def_163))) (let ((.def_165 (and .def_162 .def_154))) (let ((.def_166 (not .def_165))) (let ((.def_167 (and .def_162 .def_157))) (let ((.def_168 (not .def_167))) (let ((.def_169 (or .def_162 .def_157 .def_154 .def_153))) (let ((.def_170 (= fluent_robot_has_r1_plt0@0 fluent_robot_has_r1_plt0@1))) (let ((.def_171 (not .def_170))) (let ((.def_172 (=> .def_171 .def_169))) (let ((.def_173 (and act_make_treatment@1 true .def_37 .def_39))) (let ((.def_174 (and act_unload_at_depot@1 true .def_12 .def_8))) (let ((.def_175 (and .def_174 .def_173))) (let ((.def_176 (not .def_175))) (let ((.def_177 (and act_load_at_depot@1 true .def_25 .def_17))) (let ((.def_178 (and .def_177 .def_173))) (let ((.def_179 (not .def_178))) (let ((.def_180 (and .def_177 .def_174))) (let ((.def_181 (not .def_180))) (let ((.def_182 (and act_load@1 true .def_44 .def_46))) (let ((.def_183 (and .def_182 .def_173))) (let ((.def_184 (not .def_183))) (let ((.def_185 (and .def_182 .def_174))) (let ((.def_186 (not .def_185))) (let ((.def_187 (and .def_182 .def_177))) (let ((.def_188 (not .def_187))) (let ((.def_189 (or .def_182 .def_177 .def_174 .def_173))) (let ((.def_190 (= fluent_robot_has_r0_plt0@0 fluent_robot_has_r0_plt0@1))) (let ((.def_191 (not .def_190))) (let ((.def_192 (=> .def_191 .def_189))) (let ((.def_193 (and act_make_treatment@1 true .def_36))) (let ((.def_194 (and act_unload_at_depot@1 true .def_11))) (let ((.def_195 (and .def_194 .def_193))) (let ((.def_196 (not .def_195))) (let ((.def_197 (and act_load_at_depot@1 true .def_24))) (let ((.def_198 (and .def_197 .def_193))) (let ((.def_199 (not .def_198))) (let ((.def_200 (and .def_197 .def_194))) (let ((.def_201 (not .def_200))) (let ((.def_202 (and act_load@1 true .def_43))) (let ((.def_203 (and .def_202 .def_193))) (let ((.def_204 (not .def_203))) (let ((.def_205 (and .def_202 .def_194))) (let ((.def_206 (not .def_205))) (let ((.def_207 (and .def_202 .def_197))) (let ((.def_208 (not .def_207))) (let ((.def_209 (or .def_202 .def_197 .def_194 .def_193))) (let ((.def_210 (= fluent_robot_free_r1@0 fluent_robot_free_r1@1))) (let ((.def_211 (not .def_210))) (let ((.def_212 (=> .def_211 .def_209))) (let ((.def_213 (and act_make_treatment@1 true .def_37))) (let ((.def_214 (and act_unload_at_depot@1 true .def_12))) (let ((.def_215 (and .def_214 .def_213))) (let ((.def_216 (not .def_215))) (let ((.def_217 (and act_load_at_depot@1 true .def_25))) (let ((.def_218 (and .def_217 .def_213))) (let ((.def_219 (not .def_218))) (let ((.def_220 (and .def_217 .def_214))) (let ((.def_221 (not .def_220))) (let ((.def_222 (and act_load@1 true .def_44))) (let ((.def_223 (and .def_222 .def_213))) (let ((.def_224 (not .def_223))) (let ((.def_225 (and .def_222 .def_214))) (let ((.def_226 (not .def_225))) (let ((.def_227 (and .def_222 .def_217))) (let ((.def_228 (not .def_227))) (let ((.def_229 (or .def_222 .def_217 .def_214 .def_213))) (let ((.def_230 (= fluent_robot_free_r0@0 fluent_robot_free_r0@1))) (let ((.def_231 (not .def_230))) (let ((.def_232 (=> .def_231 .def_229))) (let ((.def_233 (and act_move@1 true .def_18 .def_21))) (let ((.def_234 (and act_move@1 true .def_18 .def_27))) (let ((.def_235 (and .def_234 .def_233))) (let ((.def_236 (not .def_235))) (let ((.def_237 (or .def_234 .def_233))) (let ((.def_238 (= fluent_robot_at_r1_p1@0 fluent_robot_at_r1_p1@1))) (let ((.def_239 (not .def_238))) (let ((.def_240 (=> .def_239 .def_237))) (let ((.def_241 (and act_move@1 true .def_19 .def_21))) (let ((.def_242 (and act_move@1 true .def_19 .def_27))) (let ((.def_243 (and .def_242 .def_241))) (let ((.def_244 (not .def_243))) (let ((.def_245 (or .def_242 .def_241))) (let ((.def_246 (= fluent_robot_at_r0_p1@0 fluent_robot_at_r0_p1@1))) (let ((.def_247 (not .def_246))) (let ((.def_248 (=> .def_247 .def_245))) (let ((.def_249 (and act_move@1 true .def_18 .def_22))) (let ((.def_250 (and act_move@1 true .def_18 .def_28))) (let ((.def_251 (and .def_250 .def_249))) (let ((.def_252 (not .def_251))) (let ((.def_253 (or .def_250 .def_249))) (let ((.def_254 (= fluent_robot_at_r1_p0@0 fluent_robot_at_r1_p0@1))) (let ((.def_255 (not .def_254))) (let ((.def_256 (=> .def_255 .def_253))) (let ((.def_257 (and act_move@1 true .def_19 .def_22))) (let ((.def_258 (and act_move@1 true .def_19 .def_28))) (let ((.def_259 (and .def_258 .def_257))) (let ((.def_260 (not .def_259))) (let ((.def_261 (or .def_258 .def_257))) (let ((.def_262 (= fluent_robot_at_r0_p0@0 fluent_robot_at_r0_p0@1))) (let ((.def_263 (not .def_262))) (let ((.def_264 (=> .def_263 .def_261))) (let ((.def_265 (and .def_264 .def_260 .def_256 .def_252 .def_248 .def_244 .def_240 .def_236 .def_232 .def_228 .def_226 .def_224 .def_221 .def_219 .def_216 .def_212 .def_208 .def_206 .def_204 .def_201 .def_199 .def_196 .def_192 .def_188 .def_186 .def_184 .def_181 .def_179 .def_176 .def_172 .def_168 .def_166 .def_164 .def_161 .def_159 .def_156 .def_152 .def_148 .def_144 .def_140 .def_136 .def_132 .def_128 .def_124 .def_118 .def_114 .def_110 .def_106 .def_102 .def_98 .def_94 .def_90 .def_88 .def_86 .def_83 .def_81 .def_78 .def_74 .def_70 .def_68 .def_66 .def_63 .def_61 .def_58 .def_54 .def_50))) (let ((.def_266 (= t@1 t@1))) (let ((.def_267 (and act_make_treatment@1 act_load@1 .def_266))) (let ((.def_268 (not .def_267))) (let ((.def_269 (and act_load@1 act_move@1 .def_266))) (let ((.def_270 (not .def_269))) (let ((.def_271 (and act_load@1 act_make_treatment@1 .def_120))) (let ((.def_272 (not .def_271))) (let ((.def_273 (and act_load@1 act_load_at_depot@1 .def_266))) (let ((.def_274 (not .def_273))) (let ((.def_275 (and act_load_at_depot@1 act_unload_at_depot@1 .def_266))) (let ((.def_276 (not .def_275))) (let ((.def_277 (and act_make_treatment@1 act_move@1 .def_266))) (let ((.def_278 (not .def_277))) (let ((.def_279 (and act_make_treatment@1 act_load_at_depot@1 .def_266))) (let ((.def_280 (not .def_279))) (let ((.def_281 (and act_load@1 act_unload_at_depot@1 .def_266))) (let ((.def_282 (not .def_281))) (let ((.def_283 (+ t@1 dur_make_treatment@1))) (let ((.def_284 (= t@1 .def_283))) (let ((.def_285 (and act_load@1 act_make_treatment@1 .def_284))) (let ((.def_286 (not .def_285))) (let ((.def_287 (and act_load_at_depot@1 act_move@1 .def_266))) (let ((.def_288 (not .def_287))) (let ((.def_289 (and act_make_treatment@1 act_unload_at_depot@1 .def_266))) (let ((.def_290 (not .def_289))) (let ((.def_291 (and act_unload_at_depot@1 act_move@1 .def_266))) (let ((.def_292 (not .def_291))) (let ((.def_293 (and .def_292 .def_290 .def_288 .def_286 .def_282 .def_280 .def_278 .def_276 .def_274 .def_272 .def_270 .def_268))) (let ((.def_294 (<= 0.0 t@1))) (let ((.def_295 (and .def_39 .def_33 .def_41))) (let ((.def_296 (ite .def_295 fluent_ready_plt0_p1_t0@1 fluent_ready_plt0_p0_t0@1))) (let ((.def_297 (and .def_39 .def_34 .def_40))) (let ((.def_298 (ite .def_297 fluent_ready_plt0_p0_t1@1 .def_296))) (let ((.def_299 (and .def_39 .def_33 .def_40))) (let ((.def_300 (ite .def_299 fluent_ready_plt0_p1_t1@1 .def_298))) (let ((.def_301 (= .def_300 true))) (let ((.def_302 (=> true .def_301))) (let ((.def_303 (and .def_120 .def_302))) (let ((.def_304 (ite .def_36 fluent_robot_free_r1@1 fluent_robot_free_r0@1))) (let ((.def_305 (= .def_304 true))) (let ((.def_306 (=> true .def_305))) (let ((.def_307 (and .def_39 .def_33))) (let ((.def_308 (ite .def_307 fluent_pallet_at_plt0_p1@1 fluent_pallet_at_plt0_p0@1))) (let ((.def_309 (= .def_308 true))) (let ((.def_310 (=> true .def_309))) (let ((.def_311 (and .def_36 .def_39))) (let ((.def_312 (ite .def_311 fluent_robot_has_r1_plt0@1 fluent_robot_has_r0_plt0@1))) (let ((.def_313 (= .def_312 false))) (let ((.def_314 (=> true .def_313))) (let ((.def_315 (ite .def_33 fluent_position_free_p1@1 fluent_position_free_p0@1))) (let ((.def_316 (= .def_315 false))) (let ((.def_317 (=> true .def_316))) (let ((.def_318 (and .def_266 .def_317 .def_314 .def_310 .def_306))) (let ((.def_319 (ite .def_33 fluent_position_free_p1@0 fluent_position_free_p0@0))) (let ((.def_320 (and .def_39 .def_40))) (let ((.def_321 (ite .def_320 fluent_treated_plt0_t1@0 fluent_treated_plt0_t0@0))) (let ((.def_322 (and .def_321 .def_319))) (let ((.def_323 (<= .def_283 t@1))) (let ((.def_324 (< (- 1.0) .def_283))) (let ((.def_325 (and .def_324 .def_323))) (let ((.def_326 (=> .def_325 .def_322))) (let ((.def_327 (not .def_321))) (let ((.def_328 (ite .def_311 fluent_robot_has_r1_plt0@0 fluent_robot_has_r0_plt0@0))) (let ((.def_329 (and .def_36 .def_34))) (let ((.def_330 (ite .def_329 fluent_robot_at_r1_p0@0 fluent_robot_at_r0_p0@0))) (let ((.def_331 (and .def_37 .def_33))) (let ((.def_332 (ite .def_331 fluent_robot_at_r0_p1@0 .def_330))) (let ((.def_333 (and .def_36 .def_33))) (let ((.def_334 (ite .def_333 fluent_robot_at_r1_p1@0 .def_332))) (let ((.def_335 (and .def_33 .def_41))) (let ((.def_336 (ite .def_335 false true))) (let ((.def_337 (and .def_34 .def_40))) (let ((.def_338 (ite .def_337 true .def_336))) (let ((.def_339 (and .def_33 .def_40))) (let ((.def_340 (ite .def_339 false .def_338))) (let ((.def_341 (and .def_340 .def_319 .def_334 .def_328 .def_327))) (let ((.def_342 (<= t@1 t@1))) (let ((.def_343 (< (- 1.0) t@1))) (let ((.def_344 (and .def_343 .def_342))) (let ((.def_345 (=> .def_344 .def_341))) (let ((.def_346 (<= dur_make_treatment@1 20.0))) (let ((.def_347 (<= 20.0 dur_make_treatment@1))) (let ((.def_348 (and .def_347 .def_346))) (let ((.def_349 (and .def_348 .def_323 .def_345 .def_326 .def_318 .def_303))) (let ((.def_350 (=> act_make_treatment@1 .def_349))) (let ((.def_351 (and .def_11 .def_8))) (let ((.def_352 (ite .def_351 fluent_robot_has_r1_plt0@1 fluent_robot_has_r0_plt0@1))) (let ((.def_353 (= .def_352 false))) (let ((.def_354 (=> true .def_353))) (let ((.def_355 (ite .def_11 fluent_robot_free_r1@1 fluent_robot_free_r0@1))) (let ((.def_356 (= .def_355 true))) (let ((.def_357 (=> true .def_356))) (let ((.def_358 (and .def_8 .def_14))) (let ((.def_359 (ite .def_358 fluent_pallet_at_plt0_p1@1 fluent_pallet_at_plt0_p0@1))) (let ((.def_360 (= .def_359 true))) (let ((.def_361 (=> true .def_360))) (let ((.def_362 (ite .def_351 fluent_robot_has_r1_plt0@0 fluent_robot_has_r0_plt0@0))) (let ((.def_363 (and .def_11 .def_15))) (let ((.def_364 (ite .def_363 fluent_robot_at_r1_p0@0 fluent_robot_at_r0_p0@0))) (let ((.def_365 (and .def_12 .def_14))) (let ((.def_366 (ite .def_365 fluent_robot_at_r0_p1@0 .def_364))) (let ((.def_367 (and .def_11 .def_14))) (let ((.def_368 (ite .def_367 fluent_robot_at_r1_p1@0 .def_366))) (let ((.def_369 (ite .def_14 true false))) (let ((.def_370 (and .def_369 .def_368 .def_362 .def_361 .def_357 .def_354))) (let ((.def_371 (=> act_unload_at_depot@1 .def_370))) (let ((.def_372 (and .def_17 .def_30))) (let ((.def_373 (ite .def_372 fluent_pallet_at_plt0_p1@1 fluent_pallet_at_plt0_p0@1))) (let ((.def_374 (= .def_373 false))) (let ((.def_375 (=> true .def_374))) (let ((.def_376 (and .def_24 .def_17))) (let ((.def_377 (ite .def_376 fluent_robot_has_r1_plt0@1 fluent_robot_has_r0_plt0@1))) (let ((.def_378 (= .def_377 true))) (let ((.def_379 (=> true .def_378))) (let ((.def_380 (ite .def_24 fluent_robot_free_r1@1 fluent_robot_free_r0@1))) (let ((.def_381 (= .def_380 false))) (let ((.def_382 (=> true .def_381))) (let ((.def_383 (ite .def_372 fluent_pallet_at_plt0_p1@0 fluent_pallet_at_plt0_p0@0))) (let ((.def_384 (ite .def_24 fluent_robot_free_r1@0 fluent_robot_free_r0@0))) (let ((.def_385 (and .def_24 .def_31))) (let ((.def_386 (ite .def_385 fluent_robot_at_r1_p0@0 fluent_robot_at_r0_p0@0))) (let ((.def_387 (and .def_25 .def_30))) (let ((.def_388 (ite .def_387 fluent_robot_at_r0_p1@0 .def_386))) (let ((.def_389 (and .def_24 .def_30))) (let ((.def_390 (ite .def_389 fluent_robot_at_r1_p1@0 .def_388))) (let ((.def_391 (ite .def_30 true false))) (let ((.def_392 (and .def_391 .def_390 .def_384 .def_383 .def_382 .def_379 .def_375))) (let ((.def_393 (=> act_load_at_depot@1 .def_392))) (let ((.def_394 (ite .def_0 fluent_position_free_p1@1 fluent_position_free_p0@1))) (let ((.def_395 (= .def_394 true))) (let ((.def_396 (=> true .def_395))) (let ((.def_397 (and .def_46 .def_3))) (let ((.def_398 (ite .def_397 fluent_treated_plt0_t1@1 fluent_treated_plt0_t0@1))) (let ((.def_399 (= .def_398 true))) (let ((.def_400 (=> true .def_399))) (let ((.def_401 (and .def_43 .def_46))) (let ((.def_402 (ite .def_401 fluent_robot_has_r1_plt0@1 fluent_robot_has_r0_plt0@1))) (let ((.def_403 (= .def_402 true))) (let ((.def_404 (=> true .def_403))) (let ((.def_405 (and .def_46 .def_0))) (let ((.def_406 (ite .def_405 fluent_pallet_at_plt0_p1@1 fluent_pallet_at_plt0_p0@1))) (let ((.def_407 (= .def_406 false))) (let ((.def_408 (=> true .def_407))) (let ((.def_409 (and .def_46 .def_0 .def_4))) (let ((.def_410 (ite .def_409 fluent_ready_plt0_p1_t0@1 fluent_ready_plt0_p0_t0@1))) (let ((.def_411 (and .def_46 .def_1 .def_3))) (let ((.def_412 (ite .def_411 fluent_ready_plt0_p0_t1@1 .def_410))) (let ((.def_413 (and .def_46 .def_0 .def_3))) (let ((.def_414 (ite .def_413 fluent_ready_plt0_p1_t1@1 .def_412))) (let ((.def_415 (= .def_414 false))) (let ((.def_416 (=> true .def_415))) (let ((.def_417 (ite .def_43 fluent_robot_free_r1@1 fluent_robot_free_r0@1))) (let ((.def_418 (= .def_417 false))) (let ((.def_419 (=> true .def_418))) (let ((.def_420 (ite .def_405 fluent_pallet_at_plt0_p1@0 fluent_pallet_at_plt0_p0@0))) (let ((.def_421 (ite .def_43 fluent_robot_free_r1@0 fluent_robot_free_r0@0))) (let ((.def_422 (and .def_43 .def_1))) (let ((.def_423 (ite .def_422 fluent_robot_at_r1_p0@0 fluent_robot_at_r0_p0@0))) (let ((.def_424 (and .def_44 .def_0))) (let ((.def_425 (ite .def_424 fluent_robot_at_r0_p1@0 .def_423))) (let ((.def_426 (and .def_43 .def_0))) (let ((.def_427 (ite .def_426 fluent_robot_at_r1_p1@0 .def_425))) (let ((.def_428 (ite .def_409 fluent_ready_plt0_p1_t0@0 fluent_ready_plt0_p0_t0@0))) (let ((.def_429 (ite .def_411 fluent_ready_plt0_p0_t1@0 .def_428))) (let ((.def_430 (ite .def_413 fluent_ready_plt0_p1_t1@0 .def_429))) (let ((.def_431 (and .def_430 .def_427 .def_421 .def_420 .def_419 .def_416 .def_408 .def_404 .def_400 .def_396))) (let ((.def_432 (=> act_load@1 .def_431))) (let ((.def_433 (and .def_21 .def_28))) (let ((.def_434 (ite .def_433 1.0 0.0))) (let ((.def_435 (and .def_22 .def_27))) (let ((.def_436 (ite .def_435 1.0 .def_434))) (let ((.def_437 (and .def_21 .def_27))) (let ((.def_438 (ite .def_437 0.0 .def_436))) (let ((.def_439 (ite .def_18 fluent_battery_level_r1@0 fluent_battery_level_r0@0))) (let ((.def_440 (- .def_439 .def_438))) (let ((.def_441 (ite .def_18 fluent_battery_level_r1@1 fluent_battery_level_r0@1))) (let ((.def_442 (= .def_441 .def_440))) (let ((.def_443 (=> true .def_442))) (let ((.def_444 (and .def_18 .def_22))) (let ((.def_445 (ite .def_444 fluent_robot_at_r1_p0@1 fluent_robot_at_r0_p0@1))) (let ((.def_446 (and .def_19 .def_21))) (let ((.def_447 (ite .def_446 fluent_robot_at_r0_p1@1 .def_445))) (let ((.def_448 (and .def_18 .def_21))) (let ((.def_449 (ite .def_448 fluent_robot_at_r1_p1@1 .def_447))) (let ((.def_450 (= .def_449 false))) (let ((.def_451 (=> true .def_450))) (let ((.def_452 (and .def_18 .def_28))) (let ((.def_453 (ite .def_452 fluent_robot_at_r1_p0@1 fluent_robot_at_r0_p0@1))) (let ((.def_454 (and .def_19 .def_27))) (let ((.def_455 (ite .def_454 fluent_robot_at_r0_p1@1 .def_453))) (let ((.def_456 (and .def_18 .def_27))) (let ((.def_457 (ite .def_456 fluent_robot_at_r1_p1@1 .def_455))) (let ((.def_458 (= .def_457 true))) (let ((.def_459 (=> true .def_458))) (let ((.def_460 (<= .def_438 .def_439))) (let ((.def_461 (ite .def_444 fluent_robot_at_r1_p0@0 fluent_robot_at_r0_p0@0))) (let ((.def_462 (ite .def_446 fluent_robot_at_r0_p1@0 .def_461))) (let ((.def_463 (ite .def_448 fluent_robot_at_r1_p1@0 .def_462))) (let ((.def_464 (= parameter_move_frompos@1 parameter_move_topos@1))) (let ((.def_465 (not .def_464))) (let ((.def_466 (and .def_465 .def_463 .def_460 .def_459 .def_451 .def_443))) (let ((.def_467 (=> act_move@1 .def_466))) (let ((.def_468 (<= 0.0 fluent_battery_level_r0@0))) (let ((.def_469 (<= fluent_battery_level_r1@0 100.0))) (let ((.def_470 (<= 0.0 fluent_battery_level_r1@0))) (let ((.def_471 (<= fluent_battery_level_r0@0 100.0))) (let ((.def_472 (= false false))) (let ((.def_473 (= fluent_pallet_at_plt0_p0@0 false))) (let ((.def_474 (= fluent_treated_plt0_t1@0 false))) (let ((.def_475 (= fluent_treated_plt0_t0@0 false))) (let ((.def_476 (= fluent_ready_plt0_p1_t1@0 false))) (let ((.def_477 (= fluent_ready_plt0_p0_t1@0 false))) (let ((.def_478 (= fluent_ready_plt0_p1_t0@0 false))) (let ((.def_479 (= fluent_ready_plt0_p0_t0@0 false))) (let ((.def_480 (= fluent_robot_has_r1_plt0@0 false))) (let ((.def_481 (= fluent_robot_has_r0_plt0@0 false))) (let ((.def_482 (= fluent_robot_at_r1_p0@0 false))) (let ((.def_483 (= fluent_robot_at_r0_p0@0 false))) (let ((.def_484 (= true true))) (let ((.def_485 (= fluent_position_free_p1@0 true))) (let ((.def_486 (= fluent_position_free_p0@0 true))) (let ((.def_487 (= 0.0 0.0))) (let ((.def_488 (= 1.0 1.0))) (let ((.def_489 (= fluent_battery_level_r1@0 4.0))) (let ((.def_490 (= fluent_battery_level_r0@0 4.0))) (let ((.def_491 (= fluent_pallet_at_plt0_p1@0 true))) (let ((.def_492 (= fluent_robot_free_r1@0 true))) (let ((.def_493 (= fluent_robot_at_r1_p1@0 true))) (let ((.def_494 (= fluent_robot_free_r0@0 true))) (let ((.def_495 (= fluent_robot_at_r0_p1@0 true))) (let ((.def_496 (and .def_495 .def_494 .def_493 .def_492 .def_491 .def_490 .def_489 .def_487 .def_488 .def_488 .def_487 .def_484 .def_486 .def_485 .def_484 .def_484 .def_483 .def_482 .def_481 .def_480 .def_479 .def_478 .def_477 .def_476 .def_475 .def_474 .def_473 .def_472 .def_472 .def_472 .def_471 .def_470 .def_469 .def_468))) (let ((.def_497 (and .def_496 .def_467 .def_432 .def_393 .def_371 .def_350 .def_294 .def_293 true .def_265 .def_46 .def_45 .def_42 .def_39 .def_38 .def_35 .def_32 .def_29 .def_26 .def_23 .def_20 .def_17 .def_16 .def_13 .def_10 .def_9 .def_8 .def_7 .def_6 .def_5 .def_2 true))) .def_497)))))))))))))))))))))))))))))))))))))))))))))))))))))))))))))))))))))))))))))))))))))))))))))))))))))))))))))))))))))))))))))))))))))))))))))))))))))))))))))))))))))))))))))))))))))))))))))))))))))))))))))))))))))))))))))))))))))))))))))))))))))))))))))))))))))))))))))))))))))))))))))))))))))))))))))))))))))))))))))))))))))))))))))))))))))))))))))))))))))))))))))))))))))))))))))))))))))))))))))))))))))))))))))))))))))))))))))))))))))))))))))))))))))))))))))))))))))))))))))))))))))))))))))))))))
(check-sat)


